27	3

10	10	10	

0	0	0	0	3	2	3	4	
5	3	5	2	2	5	6	
2	5	4	3	1	8	
4	5	2	2	1	7	
1	4	1	4	2	10	11	
5	5	5	4	2	9	12	
1	3	5	2	1	9	
2	2	4	4	1	10	
2	3	2	2	1	13	
3	3	2	4	2	13	15	
2	3	3	2	1	14	
1	4	1	4	2	13	16	
1	1	4	4	1	17	
2	2	2	2	2	17	19	
1	5	5	4	1	20	
5	1	5	4	2	18	20	
1	4	5	4	1	23	
1	3	2	3	2	22	24	
1	5	3	3	1	21	
1	2	4	6	1	21	
2	1	6	2	1	25	
2	3	2	1	1	25	
6	1	0	4	1	26	
2	2	2	1	1	26	
6	0	1	3	1	27	
1	2	2	2	1	27	
0	0	0	0	0	
